Set parameter TSPort to value 51199
Set parameter TokenServer to value "open-license1.lanl.gov"
Set parameter TimeLimit to value 512
Set parameter Threads to value 1
Gurobi Optimizer version 10.0.3 build v10.0.3rc0 (linux64)

CPU model: Intel(R) Xeon(R) CPU E5-2695 v4 @ 2.10GHz, instruction set [SSE2|AVX|AVX2]
Thread count: 36 physical cores, 72 logical processors, using up to 1 threads

Optimize a model with 0 rows, 1173 columns and 0 nonzeros
Model fingerprint: 0x4e71d82a
Model has 5176 quadratic objective terms
Variable types: 0 continuous, 1173 integer (1173 binary)
Coefficient statistics:
  Matrix range     [0e+00, 0e+00]
  Objective range  [2e+00, 3e+01]
  QObjective range [8e+00, 8e+00]
  Bounds range     [1e+00, 1e+00]
  RHS range        [0e+00, 0e+00]
Found heuristic solution: objective 0.0000000
Found heuristic solution: objective -1982.000000
Found heuristic solution: objective -7044.000000
Found heuristic solution: objective -7056.000000
Presolve time: 0.30s
Presolved: 5176 rows, 6349 columns, 15528 nonzeros
Variable types: 0 continuous, 6349 integer (6349 binary)

Root relaxation: objective -9.763000e+03, 1630 iterations, 0.03 seconds (0.01 work units)

    Nodes    |    Current Node    |     Objective Bounds      |     Work
 Expl Unexpl |  Obj  Depth IntInf | Incumbent    BestBd   Gap | It/Node Time

     0     0 -9763.0000    0 1173 -7056.0000 -9763.0000  38.4%     -    0s
     0     0 -8959.0000    0 1578 -7056.0000 -8959.0000  27.0%     -    0s
     0     0 -8953.0000    0 1581 -7056.0000 -8953.0000  26.9%     -    0s
     0     0 -8771.0000    0 1700 -7056.0000 -8771.0000  24.3%     -    1s
     0     0 -8771.0000    0 1700 -7056.0000 -8771.0000  24.3%     -    1s
     0     2 -8771.0000    0 1691 -7056.0000 -8771.0000  24.3%     -    2s
   234   236 -7907.0000  117 2216 -7056.0000 -8760.0000  24.1%   115    5s
   636   605 -7625.0000  166 1649 -7056.0000 -8760.0000  24.1%  75.8   10s
   645   611 -7083.2000  301 2550 -7056.0000 -8211.2132  16.4%  74.7   16s
   649   614 -8183.4522   42 2764 -7056.0000 -8183.4522  16.0%  74.2   20s
   657   619 -7818.0000  135 3129 -7056.0000 -8061.7433  14.3%  73.3   32s
   658   620 -7763.5000  144 3283 -7056.0000 -8040.3655  14.0%  73.2   38s
   659   620 -7076.6000  304 3427 -7056.0000 -8034.5407  13.9%  73.1   40s
   668   626 -7925.2783   72 3769 -7056.0000 -7925.2783  12.3%  72.1   62s
   669   627 -7905.3504   18 3973 -7056.0000 -7905.3504  12.0%  72.0   71s
   671   628 -7474.0000  198 4178 -7056.0000 -7899.0944  11.9%  71.8   76s
   678   633 -7661.0000  159 4253 -7056.0000 -7898.1903  11.9%  71.1   80s
   679   634 -7833.0154  110 4470 -7056.0000 -7833.0154  11.0%  71.0  101s
   680   634 -7305.0000  231 4585 -7056.0000 -7819.7404  10.8%  70.9  111s
   681   635 -7672.5000  157 4639 -7056.0000 -7817.1165  10.8%  70.8  115s
   688   640 -7307.0000  230 4723 -7056.0000 -7815.9060  10.8%  70.0  120s
   689   640 -7770.2807  128 5016 -7056.0000 -7770.2807  10.1%  69.9  143s
   690   641 -7761.2280   62 5006 -7056.0000 -7761.2280  10.0%  69.8  153s
   691   642 -7758.8591   16 5049 -7056.0000 -7758.8591  10.0%  69.7  157s
   693   643 -7334.0000  225 5124 -7056.0000 -7758.1098  10.0%  69.5  160s
   699   647 -7740.7390  135 5119 -7056.0000 -7740.7390  9.70%  68.9  176s
   700   648 -7736.7350   93 5157 -7056.0000 -7736.7350  9.65%  68.8  184s
   701   648 -7450.0000  202 5197 -7056.0000 -7735.9873  9.64%  68.7  186s
   708   653 -7220.0000  250 5255 -7056.0000 -7735.7175  9.63%  68.1  190s
   709   654 -7658.0000  160 5183 -7056.0000 -7716.8546  9.37%  68.0  208s
   710   654 -7712.5419   74 5230 -7056.0000 -7712.5419  9.30%  67.9  217s
   712   656 -7219.0000  251 5275 -7056.0000 -7711.6914  9.29%  67.7  221s
   717   659 -7251.0000  244 5280 -7056.0000 -7699.8641  9.13%  67.2  235s
   718   660 -7697.1834  130 5319 -7056.0000 -7697.1834  9.09%  67.1  243s
   719   660 -7405.0000  213 5325 -7056.0000 -7696.9057  9.08%  67.0  245s
   725   664 -7155.5000  272 5277 -7056.0000 -7685.8237  8.93%  66.5  263s
   726   665 -7683.4015  120 5339 -7056.0000 -7683.4015  8.89%  66.4  269s
   727   666 -7212.0000  254 5343 -7056.0000 -7682.8669  8.88%  66.3  271s
   733   670 -7671.9333   90 5361 -7056.0000 -7671.9333  8.73%  65.7  288s
   734   670 -7661.0000  159 5404 -7056.0000 -7669.6366  8.70%  65.7  295s
   740   674 -7669.0805   42 5457 -7056.0000 -7669.0805  8.69%  65.1  300s
   741   675 -7661.2714   93 5394 -7056.0000 -7661.2714  8.58%  65.0  311s
   742   676 -7659.4833  155 5461 -7056.0000 -7659.4833  8.55%  64.9  318s
   743   676 -7659.2608   75 5460 -7056.0000 -7659.2608  8.55%  64.9  320s
   748   680 -7631.0000  165 5388 -7056.0000 -7651.2424  8.44%  64.4  333s
   749   680 -7649.0461   42 5451 -7056.0000 -7649.0461  8.40%  64.3  339s
   750   681 -7557.0000  182 5480 -7056.0000 -7648.7329  8.40%  64.3  341s
   755   684 -7450.0000  202 5442 -7056.0000 -7643.6067  8.33%  63.8  354s
   756   685 -7200.0000  258 5475 -7056.0000 -7642.5048  8.31%  63.7  358s
   757   686 -7642.3251  135 5500 -7056.0000 -7642.3251  8.31%  63.7  360s
   763   690 -7638.8112   21 5466 -7056.0000 -7638.8112  8.26%  63.2  369s
   764   690 -7151.5000  274 5509 -7056.0000 -7638.0463  8.25%  63.1  372s
   769   694 -7634.3231   18 5508 -7056.0000 -7634.3231  8.20%  62.7  382s
   770   694 -7218.0000  252 5548 -7056.0000 -7633.4015  8.18%  62.6  387s
   776   698 -7186.0000  262 5516 -7056.0000 -7630.1973  8.14%  62.1  396s
   777   699 -7629.1393  107 5532 -7056.0000 -7629.1393  8.12%  62.0  401s
   782   702 -7176.0000  265 5581 -7056.0000 -7628.8128  8.12%  61.6  405s
   783   703 -7624.6561   96 5561 -7056.0000 -7624.6561  8.06%  61.5  414s
   784   704 -7103.0000  292 5614 -7056.0000 -7623.6875  8.05%  61.5  418s
   785   704 -7623.5160    4 5606 -7056.0000 -7623.5160  8.04%  61.4  420s
   789   707 -7621.3394  128 5565 -7056.0000 -7621.3394  8.01%  61.1  428s
   790   708 -7620.8625   62 5580 -7056.0000 -7620.8625  8.01%  61.0  430s
   796   712 -7188.0000  262 5550 -7056.0000 -7618.7506  7.98%  60.5  439s
   797   712 -7127.0000  282 5592 -7056.0000 -7618.2685  7.97%  60.5  442s
   802   716 -7295.0000  233 5608 -7056.0000 -7616.3902  7.94%  60.1  450s
   808   720 -7220.0000  250 5656 -7056.0000 -7615.5201  7.93%  59.6  455s
   819   729 -7405.0000  213 2486 -7056.0000 -7615.4899  7.93%   835  461s
   820   729 -7615.4899  156 4579 -7056.0000 -7615.4899  7.93%   834  494s

Cutting planes:
  Gomory: 48
  MIR: 215
  Flow cover: 1816
  Zero half: 743
  Mod-K: 24
  RLT: 264
  BQP: 344

Explored 820 nodes (811639 simplex iterations) in 512.00 seconds (599.48 work units)
Thread count was 1 (of 72 available processors)

Solution count 4: -7056 -7044 -1982 0 

Time limit reached
Best objective -7.056000000000e+03, best bound -7.614000000000e+03, gap 7.9082%

User-callback calls 8177, time in user-callback 0.04 sec

BQP_SOLUTION, 1173, 5176, -2469.000000, 512.001071, 1, 1, 1, 1, 1, -1, 1, 1, -1, 1, -1, -1, -1, 1, 1, -1, 1, -1, -1, -1, 1, 1, 1, -1, -1, -1, -1, -1, 1, -1, 1, -1, -1, 1, 1, 1, 1, 1, -1, 1, -1, 1, 1, -1, 1, -1, -1, -1, 1, 1, 1, 1, -1, 1, -1, 1, 1, 1, 1, 1, 1, -1, 1, 1, 1, 1, -1, -1, -1, 1, -1, 1, 1, 1, 1, -1, -1, 1, 1, 1, 1, -1, -1, 1, 1, 1, 1, -1, -1, -1, 1, 1, 1, 1, -1, -1, -1, 1, 1, 1, 1, -1, -1, -1, 1, -1, 1, -1, 1, 1, -1, -1, -1, 1, 1, 1, -1, -1, -1, 1, 1, 1, -1, -1, -1, 1, 1, -1, 1, 1, -1, -1, 1, 1, 1, -1, 1, 1, -1, -1, 1, 1, -1, -1, 1, -1, 1, 1, 1, -1, 1, 1, 1, -1, 1, 1, 1, 1, 1, -1, -1, 1, -1, -1, 1, 1, 1, -1, -1, 1, 1, 1, 1, -1, -1, 1, -1, 1, 1, 1, -1, 1, -1, 1, -1, 1, -1, 1, -1, -1, -1, 1, -1, 1, 1, -1, -1, 1, 1, -1, 1, 1, -1, 1, 1, -1, 1, -1, 1, -1, -1, 1, -1, -1, 1, 1, -1, 1, 1, 1, -1, 1, -1, -1, 1, 1, 1, -1, 1, -1, -1, 1, 1, -1, 1, 1, 1, 1, 1, 1, -1, 1, 1, 1, -1, 1, -1, -1, -1, -1, -1, 1, 1, -1, -1, 1, 1, 1, -1, 1, -1, -1, 1, 1, -1, 1, 1, 1, -1, 1, -1, 1, -1, 1, 1, 1, -1, -1, 1, -1, 1, 1, 1, 1, 1, -1, 1, 1, 1, 1, -1, 1, 1, 1, 1, 1, 1, -1, 1, 1, 1, 1, 1, 1, 1, 1, 1, 1, 1, 1, 1, -1, 1, 1, 1, 1, 1, 1, 1, 1, 1, 1, 1, 1, 1, 1, 1, 1, 1, 1, 1, 1, 1, 1, 1, -1, 1, 1, 1, 1, 1, 1, 1, 1, 1, 1, -1, 1, 1, -1, 1, 1, 1, -1, 1, 1, 1, 1, 1, 1, -1, 1, 1, 1, 1, 1, 1, 1, 1, 1, 1, 1, 1, 1, -1, 1, 1, -1, 1, 1, 1, -1, 1, 1, -1, 1, 1, 1, -1, -1, 1, 1, -1, 1, 1, -1, -1, 1, 1, -1, 1, -1, 1, -1, 1, 1, -1, 1, 1, -1, 1, 1, -1, 1, 1, -1, -1, 1, -1, 1, 1, -1, -1, -1, 1, 1, 1, 1, 1, -1, -1, -1, 1, 1, 1, -1, -1, 1, 1, 1, 1, 1, -1, -1, 1, -1, 1, 1, -1, 1, -1, 1, -1, 1, 1, 1, -1, -1, -1, 1, 1, 1, 1, -1, 1, -1, 1, -1, 1, 1, 1, -1, 1, -1, 1, 1, 1, -1, 1, -1, 1, -1, 1, 1, 1, -1, -1, 1, -1, -1, 1, -1, -1, -1, 1, -1, 1, 1, 1, -1, -1, 1, -1, 1, -1, -1, 1, -1, 1, -1, 1, 1, 1, -1, 1, 1, -1, 1, 1, -1, 1, -1, -1, 1, 1, -1, 1, -1, 1, -1, 1, 1, 1, 1, 1, -1, -1, 1, -1, 1, -1, -1, 1, -1, -1, 1, 1, 1, 1, -1, -1, 1, -1, 1, -1, 1, 1, -1, 1, 1, -1, 1, 1, -1, -1, 1, -1, 1, -1, 1, 1, -1, -1, 1, 1, 1, -1, 1, 1, 1, -1, 1, -1, -1, -1, 1, 1, -1, 1, 1, -1, 1, -1, 1, 1, -1, 1, 1, -1, 1, -1, -1, -1, 1, -1, -1, -1, 1, 1, -1, 1, -1, 1, 1, -1, -1, -1, 1, -1, -1, 1, -1, -1, 1, -1, -1, -1, 1, -1, 1, 1, -1, 1, -1, -1, -1, -1, 1, -1, 1, -1, 1, -1, -1, 1, -1, -1, -1, 1, -1, -1, 1, -1, -1, -1, -1, -1, 1, -1, 1, -1, -1, -1, -1, -1, -1, -1, 1, -1, -1, -1, 1, -1, -1, 1, -1, -1, -1, 1, -1, -1, 1, -1, 1, -1, -1, -1, -1, -1, -1, 1, -1, 1, -1, -1, -1, 1, 1, -1, -1, -1, -1, -1, 1, -1, -1, -1, -1, -1, 1, -1, -1, -1, 1, -1, -1, -1, 1, -1, -1, 1, -1, -1, -1, 1, 1, 1, 1, 1, 1, -1, 1, 1, 1, -1, -1, -1, -1, -1, -1, -1, -1, 1, -1, -1, -1, -1, 1, -1, -1, 1, -1, -1, 1, -1, 1, -1, -1, -1, 1, -1, -1, -1, -1, -1, -1, -1, 1, -1, 1, 1, -1, -1, -1, 1, -1, 1, 1, -1, 1, 1, -1, -1, 1, -1, -1, -1, -1, -1, 1, 1, -1, -1, 1, 1, -1, -1, 1, -1, 1, 1, 1, -1, -1, -1, 1, -1, 1, -1, -1, -1, -1, 1, -1, 1, 1, -1, 1, -1, -1, -1, 1, -1, 1, -1, -1, 1, -1, 1, -1, 1, -1, -1, -1, -1, 1, -1, -1, 1, -1, -1, -1, 1, 1, 1, -1, 1, -1, 1, 1, 1, 1, -1, 1, -1, 1, 1, 1, 1, -1, 1, -1, 1, 1, -1, 1, -1, 1, -1, 1, 1, -1, 1, -1, 1, -1, 1, 1, 1, 1, -1, 1, -1, -1, 1, -1, 1, -1, 1, -1, 1, 1, -1, 1, -1, 1, 1, -1, 1, 1, 1, -1, 1, -1, -1, 1, 1, -1, 1, -1, 1, -1, 1, 1, 1, 1, -1, 1, -1, 1, 1, -1, 1, 1, -1, 1, -1, 1, 1, -1, 1, -1, 1, -1, 1, -1, 1, -1, -1, 1, 1, -1, 1, -1, -1, 1, -1, -1, 1, -1, 1, -1, 1, 1, 1, -1, 1, -1, 1, -1, 1, 1, 1, 1, 1, -1, -1, 1, 1, 1, 1, -1, 1, -1, 1, -1, 1, 1, 1, -1, -1, 1, -1, -1, 1, 1, -1, -1, 1, 1, -1, 1, 1, -1, 1, -1, -1, 1, 1, 1, -1, -1, 1, -1, 1, 1, -1, 1, -1, 1, -1, -1, 1, -1, 1, 1, -1, 1, 1, 1, -1, 1, -1, 1, -1, 1, 1, 1, -1, -1, 1, 1, -1, 1, 1, -1, -1, 1, -1, 1, 1, 1, -1, -1, -1, -1, 1, 1, 1, -1, -1, -1, 1, -1, 1, 1, 1, -1, 1, 1, 1, 1, 1, 1, -1, -1, 1, 1, 1, 1, 1, -1, -1, 1, 1, -1, 1, -1, 1, -1, -1, 1, 1, 1, 1, -1, -1, 1, 1, 1, -1, 1, -1, -1, 1, -1, -1, 1, 1, -1, -1, -1, 1, -1, 1, -1, 1, -1, 1, -1, -1, 1, 1, -1, -1, 1, -1, -1, 1, 1, -1, -1, 1, 1, -1, 1, 1, -1, -1, 1, -1, -1, 1, 1, -1, 1, -1, 1, 1, -1, -1, 1, -1, -1, -1, -1, 1, 1, -1, -1, -1, -1, -1, -1, 1, 1, -1, -1, 1, 1, 1, 1, -1, -1, -1, 1, 1, -1, 1, -1, 1, -1, 1
BQP_DATA, 1173, 5176, -2469.000000, -3027.000000, -7056.000000, -7614.000000, 512.001071, 2846, 820
